33D32945 STP File, STP Format Version 1.0

SECTION Comment
Name    "i080-312"
Creator "Cees Duin"
Remark  "Incidence graph"
END

SECTION Graph
Nodes 80
Edges 350
E 1 5 297
E 1 6 305
E 1 7 303
E 1 11 296
E 1 21 191
E 1 24 199
E 1 25 201
E 1 28 193
E 1 29 196
E 1 39 190
E 1 41 208
E 1 46 200
E 1 49 199
E 1 67 190
E 1 76 199
E 1 79 202
E 2 19 300
E 2 41 209
E 2 42 201
E 2 47 200
E 2 51 202
E 2 65 195
E 2 76 203
E 3 4 302
E 3 9 301
E 3 25 191
E 3 30 198
E 3 32 204
E 3 34 199
E 3 49 200
E 3 53 199
E 3 56 193
E 3 61 198
E 3 62 199
E 3 65 195
E 4 8 306
E 4 10 301
E 4 12 293
E 4 16 297
E 4 27 205
E 4 28 205
E 4 43 201
E 4 44 201
E 4 62 197
E 4 68 204
E 5 9 299
E 5 21 199
E 5 43 201
E 5 67 196
E 5 75 199
E 5 80 199
E 6 36 202
E 6 39 202
E 6 42 207
E 6 62 207
E 6 68 209
E 6 70 191
E 6 71 204
E 6 73 196
E 7 19 300
E 7 28 199
E 7 32 200
E 7 39 201
E 7 46 202
E 7 53 203
E 7 56 202
E 7 61 190
E 7 63 198
E 7 75 192
E 8 9 306
E 8 30 191
E 8 45 203
E 8 47 189
E 8 53 193
E 8 62 200
E 9 30 194
E 9 32 199
E 9 49 198
E 9 58 198
E 10 15 300
E 10 32 189
E 10 55 192
E 10 58 193
E 10 61 198
E 10 67 192
E 10 76 201
E 10 78 208
E 11 20 298
E 11 33 192
E 11 43 203
E 11 45 203
E 11 53 204
E 11 56 202
E 12 17 300
E 12 21 201
E 12 26 198
E 12 45 197
E 12 47 201
E 12 54 205
E 13 29 204
E 13 31 205
E 13 38 207
E 13 48 200
E 13 50 205
E 13 52 200
E 13 59 199
E 13 67 187
E 13 72 203
E 13 75 199
E 14 21 185
E 14 32 204
E 14 35 193
E 14 38 202
E 14 40 187
E 14 42 202
E 14 69 207
E 14 72 203
E 14 73 205
E 15 27 203
E 15 32 200
E 15 34 202
E 15 37 200
E 15 42 198
E 15 47 202
E 15 49 202
E 15 73 196
E 16 22 200
E 16 29 209
E 16 31 195
E 16 37 201
E 16 42 194
E 16 45 197
E 16 52 202
E 16 59 201
E 16 68 198
E 17 20 299
E 17 30 209
E 17 34 203
E 17 35 200
E 17 38 190
E 17 41 202
E 17 54 200
E 18 20 300
E 18 32 196
E 18 34 203
E 18 36 199
E 18 40 202
E 18 50 198
E 18 51 191
E 18 52 196
E 18 55 198
E 18 62 205
E 18 78 199
E 19 34 203
E 19 50 194
E 19 69 188
E 19 74 198
E 19 77 202
E 20 24 202
E 20 32 200
E 20 37 202
E 20 44 198
E 20 48 201
E 20 50 202
E 20 51 197
E 20 52 197
E 20 56 194
E 20 62 202
E 20 77 202
E 20 78 198
E 20 79 196
E 21 24 97
E 21 25 99
E 21 29 107
E 21 37 105
E 21 38 101
E 21 39 102
E 21 44 96
E 21 65 108
E 21 76 96
E 22 35 105
E 22 70 102
E 23 34 93
E 23 37 100
E 23 45 101
E 23 51 99
E 23 58 97
E 23 60 95
E 23 61 100
E 23 65 105
E 23 67 98
E 23 69 100
E 23 70 100
E 24 42 106
E 24 53 101
E 24 57 96
E 25 40 100
E 25 52 104
E 25 57 93
E 25 69 94
E 25 77 107
E 26 27 94
E 26 53 100
E 26 56 99
E 26 59 99
E 26 64 91
E 26 68 109
E 26 75 106
E 26 78 97
E 26 80 103
E 27 28 90
E 27 42 101
E 27 69 104
E 27 79 104
E 28 37 104
E 28 42 100
E 28 55 97
E 28 62 101
E 28 63 112
E 28 69 107
E 28 77 91
E 28 79 102
E 29 44 100
E 29 70 101
E 29 74 102
E 30 38 91
E 30 39 105
E 30 60 95
E 30 66 103
E 30 71 93
E 30 74 90
E 30 76 108
E 31 37 100
E 31 51 94
E 31 65 99
E 31 79 105
E 31 80 100
E 32 56 94
E 32 76 97
E 33 38 102
E 33 40 98
E 33 43 103
E 33 48 96
E 33 71 102
E 33 75 109
E 33 77 95
E 35 48 100
E 35 52 99
E 35 54 101
E 35 56 97
E 35 67 99
E 35 78 97
E 35 79 93
E 36 45 99
E 36 69 104
E 36 72 100
E 37 38 95
E 37 43 110
E 37 57 109
E 37 58 100
E 37 68 112
E 37 69 93
E 38 45 98
E 39 42 101
E 39 43 101
E 39 44 96
E 39 58 90
E 39 63 107
E 39 74 103
E 40 45 96
E 40 47 96
E 40 53 96
E 40 56 100
E 40 58 95
E 40 59 98
E 40 68 97
E 40 79 100
E 41 78 96
E 42 56 99
E 42 58 99
E 42 62 97
E 42 68 88
E 43 45 93
E 43 48 103
E 43 60 95
E 43 65 100
E 43 76 91
E 44 55 102
E 44 75 99
E 45 58 101
E 45 64 107
E 45 66 103
E 45 75 99
E 46 54 104
E 46 77 96
E 47 49 99
E 47 55 102
E 47 68 105
E 47 78 99
E 48 52 110
E 49 53 100
E 49 71 96
E 50 51 94
E 50 64 95
E 50 65 102
E 51 52 95
E 51 59 95
E 51 75 98
E 52 59 91
E 52 63 94
E 52 78 104
E 52 79 96
E 53 66 109
E 53 80 106
E 54 64 98
E 54 69 98
E 54 79 109
E 55 59 88
E 55 70 96
E 55 73 95
E 55 78 92
E 56 62 103
E 56 65 103
E 56 67 108
E 56 68 99
E 58 64 100
E 59 63 107
E 60 61 101
E 60 65 108
E 60 66 98
E 60 74 107
E 61 78 97
E 61 80 104
E 62 71 100
E 63 67 96
E 65 78 99
E 66 73 104
E 67 76 99
E 68 78 89
E 69 75 101
E 69 78 104
E 70 72 101
E 70 79 99
E 72 76 88
E 72 80 98
E 73 79 99
E 75 77 93
E 75 79 102
E 76 77 93
E 76 80 100
END

SECTION Terminals
Terminals 20
T 1
T 2
T 3
T 4
T 5
T 6
T 7
T 8
T 9
T 10
T 11
T 12
T 13
T 14
T 15
T 16
T 17
T 18
T 19
T 20
END

EOF
